NAME : portcgen-15-5
COMMENT : portcgen N=15, seed=5
TYPE : TSP
DIMENSION : 15
EDGE_WEIGHT_TYPE : EUC_2D
NODE_COORD_SECTION
1 188200 21483
2 79839 -20452
3 38048 57551
4 -278426 361671
5 -295693 38920
6 23769 -46342
7 175727 224419
8 238526 254863
9 42192 -275591
10 264263 11709
11 28110 -188153
12 149653 232292
13 -123740 429438
14 -60385 208446
15 -87563 95416
